Traveling Salesman Problem/TSP_generados/Aleatorio1621103736_17.tsp
NAME: Aleatorio1621103736_17.tsp
COMMENT: Randomly generated scenario
TYPE: TSP
DIMENSION: 17
EDGE_WEIGHT_TYPE: ATT
NODE_COORD_SECTION
1 34.68 39.68
2 2.65 28.86
3 21.66 45.27
4 14.11 15.64
5 35.26 4.98
6 33.6 37.97
7 24.31 9.78
8 2.47 23.47
9 15.22 21.46
10 37.77 23.31
11 35.14 5.09
12 20.05 31.51
13 38.26 38.01
14 44.94 16.68
15 7.38 32.56
16 26.82 3.25
17 34.54 11.27
