Traveling Salesman Problem/TSP_generados/Aleatorio1621103736_17.opt.tour
NAME: Aleatorio1621103736_17.opt.tour
COMMENT: Optimal solution for Aleatorio1621103736_17 (146.70881449747213)
TYPE: TOUR
DIMENSION: 17
TOUR_SECTION
1 6 3 12 15 2 8 9 4 7 16 5 11 17 14 10 13
-1
EOF
